VRPTWMS/instances/mip/fuel/4/N4-C_DV100-C_SV30_F6_1_No_1.log

Gurobi 6.0.4 (win64) logging started 06/21/15 19:06:15

Read LP format model from file C:\MT\repository\VRPTWMS\instances\mip\fuel\N4-C_DV100-C_SV30_F6_1_No_1.lp
Reading time = 0.01 seconds
(null): 129 rows, 76 columns, 459 nonzeros
Optimize a model with 129 rows, 76 columns and 459 nonzeros
Model has 80 quadratic constraints
Coefficient statistics:
  Matrix range    [1e+00, 1e+06]
  Objective range [7e+04, 1e+07]
  Bounds range    [1e+00, 1e+06]
  RHS range       [1e+00, 1e+06]
Presolve removed 40 rows and 18 columns
Presolve time: 0.02s
Presolved: 226 rows, 131 columns, 949 nonzeros
Variable types: 64 continuous, 67 integer (48 binary)
Found heuristic solution: objective 2.104310e+07

Root relaxation: objective 1.104210e+07, 13 iterations, 0.00 seconds

    Nodes    |    Current Node    |     Objective Bounds      |     Work
 Expl Unexpl |  Obj  Depth IntInf | Incumbent    BestBd   Gap | It/Node Time

     0     0 1.1042e+07    0    1 2.1043e+07 1.1042e+07  47.5%     -    0s
     0     0 1.1042e+07    0    2 2.1043e+07 1.1042e+07  47.5%     -    0s
     0     0 1.1213e+07    0    7 2.1043e+07 1.1213e+07  46.7%     -    0s
     0     0 1.1213e+07    0    9 2.1043e+07 1.1213e+07  46.7%     -    0s
     0     0 1.1213e+07    0    8 2.1043e+07 1.1213e+07  46.7%     -    0s
     0     0 1.1213e+07    0    8 2.1043e+07 1.1213e+07  46.7%     -    0s
     0     0 1.1213e+07    0    8 2.1043e+07 1.1213e+07  46.7%     -    0s
     0     0 1.1302e+07    0   11 2.1043e+07 1.1302e+07  46.3%     -    0s
     0     0 1.1302e+07    0   11 2.1043e+07 1.1302e+07  46.3%     -    0s
     0     0 1.1302e+07    0    7 2.1043e+07 1.1302e+07  46.3%     -    0s
     0     0 1.1302e+07    0    7 2.1043e+07 1.1302e+07  46.3%     -    0s
     0     0 1.1302e+07    0    7 2.1043e+07 1.1302e+07  46.3%     -    0s
     0     2 1.1302e+07    0    7 2.1043e+07 1.1302e+07  46.3%     -    0s

Cutting planes:
  Gomory: 2
  Implied bound: 4
  MIR: 8
  Mod-K: 1

Explored 19 nodes (531 simplex iterations) in 0.08 seconds
Thread count was 2 (of 4 available processors)

Optimal solution found (tolerance 1.00e-04)
Best objective 2.104310000000e+07, best bound 2.104310000000e+07, gap 0.0%
k_c1	919999.0
k_c2	1000000.0
k_c3	40000.0
k_c4	869998.0
k_dN	-0.0
o_1	-0.0
o_2	-0.0
o_3	-0.0
o_4	-0.0
p_1	-0.0
p_2	-0.0
p_3	-0.0
p_4	-0.0
phi_c1	44252.0
phi_c2	52795.0
phi_c3	18007.0
phi_c4	32819.0
phi_dN	-0.0
pi_c1	-0.0
pi_c2	-0.0
pi_c3	272819.0
pi_c4	-0.0
pi_dN	-0.0
tauD_c1	300000.0
tauD_c2	100000.0
tauD_c3	800000.0
tauD_c4	650000.0
tauD_d0	-0.0
tauD_dN	1000000.0
tauS_c1	28650.0
tauS_c2	863125.0
tauS_c3	870000.0
tauS_c4	15350.0
tauS_d0	-0.0
tauS_dN	104475.0
x_c1_c4	1.0
x_c2_dN	1.0
x_c3_dN	1.0
x_c4_c3	1.0
x_d0_c1	1.0
x_d0_c2	1.0
